NAME : n100w140.003.844.tour
COMMENT : Length = 844
COMMENT : Found by LKH [Keld Helsgaun] Tue May  2 05:52:32 2017
TYPE : TOUR
DIMENSION : 101
TOUR_SECTION
1
44
87
39
76
64
5
18
34
62
23
7
52
75
81
72
54
86
36
16
95
71
14
89
88
29
97
30
93
21
6
47
60
26
42
96
24
84
22
82
19
49
35
46
3
80
31
59
33
2
58
78
70
69
38
98
25
77
12
94
56
53
20
43
99
50
13
51
73
45
9
85
101
37
17
32
74
27
61
65
68
57
55
90
91
41
66
15
8
63
11
4
10
92
40
79
83
48
100
67
28
-1
EOF
